\LP file generated from the problem `Slots selection' by the
\Xpress Builder Component Library Xpress BCL

Minimize
obj: 1.00009e+006 WR_(145) + 1.00003e+006 WR_(146) + 1.00006e+006 WR_(147) + 
1.00012e+006 WR_(148) + 1.00003e+006 WR_(149) + 1.00003e+006 WR_(150) + 1.00006e+006 WR_(151) + 
1.00009e+006 WR_(152) + 1.00006e+006 WR_(153) + 1.00009e+006 WR_(154) + 1.00006e+006 WR_(155) + 
1.00009e+006 WR_(156) + 1.00003e+006 WR_(157) + 1.00003e+006 WR_(158) + 1.00009e+006 WR_(159) + 
1.00009e+006 WR_(160) + 1.00005e+006 WR_(161) + 1.00003e+006 WR_(162) + 1.00005e+006 WR_(163) + 
1.00009e+006 WR_(164) + 1.00003e+006 WR_(165) + 1.00003e+006 WR_(166) + 1.00009e+006 WR_(167) + 
1.00003e+006 WR_(168) + 1.00003e+006 WR_(169) + 1.00003e+006 WR_(170) + 1.00003e+006 WR_(171) + 
1.00003e+006 WR_(0) + 1.00003e+006 WR_(1) + 1.00008e+006 WR_(2) + 1.00008e+006 WR_(3) + 
1.00003e+006 WR_(4) + 1.00006e+006 WR_(5) + 1.00005e+006 WR_(6) + 1.00005e+006 WR_(7) + 
1.00006e+006 WR_(8) + 1.00003e+006 WR_(9) + 1.00003e+006 WR_(10) + 1.00008e+006 WR_(11) + 
1.00003e+006 WR_(12) + 1.00003e+006 WR_(13) + 1.00009e+006 WR_(14) + 1.00003e+006 WR_(15) + 
1.00009e+006 WR_(16) + 1.00003e+006 WR_(17) + 1.00006e+006 WR_(18) + 1.00012e+006 WR_(19) + 
1.00003e+006 WR_(20) + 1.00003e+006 WR_(21) + 1.00006e+006 WR_(22) + 1.00009e+006 WR_(23) + 
1.00006e+006 WR_(24) + 1.00009e+006 WR_(25) + 1.00006e+006 WR_(26) + 1.00009e+006 WR_(27) + 
1.00003e+006 WR_(28) + 1.00003e+006 WR_(29) + 1.00009e+006 WR_(30) + 1.00009e+006 WR_(31) + 
1.00005e+006 WR_(32) + 1.00003e+006 WR_(33) + 1.00005e+006 WR_(34) + 1.00009e+006 WR_(35) + 
1.00003e+006 WR_(36) + 1.00003e+006 WR_(37) + 1.00009e+006 WR_(38) + 1.00003e+006 WR_(39) + 
1.00003e+006 WR_(40) + 1.00003e+006 WR_(41) + 1.00003e+006 WR_(42) + 106 WR_(43) + 
214 WR_(44) + 106 WR_(45) + 191 WR_(46) + 221 WR_(47) + 95 WR_(48) + 124 WR_(49) + 
122 WR_(50) + 229 WR_(51) + 161 WR_(52) + 214 WR_(53) + 199 WR_(54) + 195 WR_(55) + 
199 WR_(56) + 1.00009e+006 WR_(57) + 225 WR_(58) + 186 WR_(59) + 122 WR_(60) + 
128 WR_(61) + 1.00012e+006 WR_(62) + 214 WR_(63) + 1.00003e+006 WR_(64) + 1.00006e+006 WR_(65) + 
122 WR_(66) + 128 WR_(67) + 186 WR_(68) + 1.00006e+006 WR_(69) + 1.00009e+006 WR_(70) + 
1.00003e+006 WR_(71) + 1.00003e+006 WR_(72) + 224 WR_(73) + 1.00009e+006 WR_(74) + 
363 WR_(75) + 67 WR_(76) + 180 WR_(77) + 195 WR_(78) + 1.00003e+006 WR_(79) + 
1.00003e+006 WR_(80) + 1.00009e+006 WR_(81) + 66 WR_(82) + 66 WR_(83) + 1.00003e+006 WR_(84) + 
1.00003e+006 WR_(85) + 106 WR_(86) + 214 WR_(87) + 106 WR_(88) + 191 WR_(89) + 
221 WR_(90) + 95 WR_(91) + 124 WR_(92) + 122 WR_(93) + 229 WR_(94) + 161 WR_(95) + 
214 WR_(96) + 199 WR_(97) + 195 WR_(98) + 199 WR_(99) + 1.00009e+006 WR_(100) + 
225 WR_(101) + 186 WR_(102) + 122 WR_(103) + 128 WR_(104) + 1.00012e+006 WR_(105) + 
214 WR_(106) + 1.00003e+006 WR_(107) + 1.00006e+006 WR_(108) + 122 WR_(109) + 
128 WR_(110) + 186 WR_(111) + 1.00006e+006 WR_(112) + 1.00009e+006 WR_(113) + 
1.00003e+006 WR_(114) + 1.00003e+006 WR_(115) + 224 WR_(116) + 1.00009e+006 WR_(117) + 
300 WR_(118) + 67 WR_(119) + 180 WR_(120) + 195 WR_(121) + 1.00003e+006 WR_(122) + 
1.00003e+006 WR_(123) + 1.00009e+006 WR_(124) + 66 WR_(125) + 66 WR_(126) + 
1.00003e+006 WR_(127) + 1.00003e+006 WR_(128) + 1.00003e+006 WR_(129) + 1.00003e+006 WR_(130) + 
1.00008e+006 WR_(131) + 1.00008e+006 WR_(132) + 1.00003e+006 WR_(133) + 1.00006e+006 WR_(134) + 
1.00005e+006 WR_(135) + 1.00005e+006 WR_(136) + 1.00006e+006 WR_(137) + 1.00003e+006 WR_(138) + 
1.00003e+006 WR_(139) + 1.00008e+006 WR_(140) + 1.00003e+006 WR_(141) + 1.00003e+006 WR_(142) + 
1.00009e+006 WR_(143) + 1.00003e+006 WR_(144)

Subject To
slot_75: = 0
slot_74: = 0
slot_73: = 0
slot_72: = 0
slot_71: = 0
slot_70: = 0
slot_69: = 0
slot_68: = 0
slot_67: = 0
slot_66: = 0
slot_65: = 0
slot_64: = 0
slot_63: = 0
slot_62: = 0
slot_61: = 0
slot_60: = 0
slot_59: = 0
slot_58: = 0
slot_57: = 0
slot_56: = 0
slot_55: = 0
slot_54: = 0
slot_53: = 0
slot_52: = 0
slot_51: = 0
slot_50: = 0
slot_49: = 0
slot_48: = 0
slot_47: = 0
slot_46: = 0
slot_45: = 0
slot_44: = 0
slot_43: WR_(171) + WR_(42) + WR_(85) + WR_(128) = 1
slot_42: WR_(170) + WR_(41) + WR_(84) + WR_(127) = 1
slot_41: WR_(169) + WR_(40) + WR_(82) + WR_(83) + WR_(125) + WR_(126) = 1
slot_40: WR_(168) + WR_(39) + WR_(82) + WR_(83) + WR_(125) + WR_(126) = 1
slot_39: WR_(167) + WR_(38) + WR_(81) + WR_(124) = 1
slot_38: WR_(166) + WR_(37) + WR_(80) + WR_(123) = 1
slot_37: WR_(165) + WR_(36) + WR_(79) + WR_(122) = 1
slot_36: WR_(164) + WR_(35) + WR_(55) + WR_(78) + WR_(98) + WR_(121) = 1
slot_35: WR_(163) + WR_(34) + WR_(77) + WR_(120) = 1
slot_34: WR_(162) + WR_(33) + WR_(76) + WR_(119) = 1
slot_33: WR_(161) + WR_(32) + WR_(51) + WR_(75) + WR_(94) + WR_(118) = 1
slot_32: WR_(160) + WR_(31) + WR_(74) + WR_(117) = 1
slot_31: WR_(159) + WR_(30) + WR_(73) + WR_(116) = 1
slot_30: WR_(158) + WR_(29) + WR_(72) + WR_(76) + WR_(115) + WR_(119) = 1
slot_29: WR_(157) + WR_(28) + WR_(71) + WR_(114) = 1
slot_28: WR_(156) + WR_(27) + WR_(63) + WR_(70) + WR_(106) + WR_(113) = 1
slot_27: WR_(155) + WR_(26) + WR_(55) + WR_(69) + WR_(78) + WR_(98) + WR_(112) + 
WR_(121) = 1
slot_26: WR_(154) + WR_(25) + WR_(47) + WR_(58) + WR_(59) + WR_(68) + WR_(90) + 
WR_(101) + WR_(102) + WR_(111) = 1
slot_25: WR_(153) + WR_(24) + WR_(61) + WR_(67) + WR_(73) + WR_(104) + WR_(110) + 
WR_(116) = 1
slot_24: WR_(152) + WR_(23) + WR_(52) + WR_(60) + WR_(66) + WR_(95) + WR_(103) + 
WR_(109) = 1
slot_23: WR_(151) + WR_(22) + WR_(65) + WR_(108) = 1
slot_22: WR_(150) + WR_(21) + WR_(48) + WR_(64) + WR_(91) + WR_(107) = 1
slot_21: WR_(149) + WR_(20) + WR_(49) + WR_(50) + WR_(63) + WR_(92) + WR_(93) + 
WR_(106) = 1
slot_20: WR_(148) + WR_(19) + WR_(62) + WR_(105) = 1
slot_19: WR_(147) + WR_(18) + WR_(61) + WR_(67) + WR_(73) + WR_(104) + WR_(110) + 
WR_(116) = 1
slot_18: WR_(146) + WR_(17) + WR_(52) + WR_(60) + WR_(66) + WR_(95) + WR_(103) + 
WR_(109) = 1
slot_17: WR_(145) + WR_(16) + WR_(47) + WR_(58) + WR_(59) + WR_(68) + WR_(77) + 
WR_(90) + WR_(101) + WR_(102) + WR_(111) + WR_(120) = 1
slot_16: WR_(15) + WR_(58) + WR_(77) + WR_(101) + WR_(120) + WR_(144) = 1
slot_15: WR_(14) + WR_(57) + WR_(100) + WR_(143) = 1
slot_14: WR_(13) + WR_(46) + WR_(54) + WR_(56) + WR_(75) + WR_(89) + WR_(97) + 
WR_(99) + WR_(142) = 1
slot_13: WR_(12) + WR_(49) + WR_(50) + WR_(55) + WR_(63) + WR_(78) + WR_(92) + 
WR_(93) + WR_(98) + WR_(106) + WR_(121) + WR_(141) = 1
slot_12: WR_(11) + WR_(46) + WR_(54) + WR_(56) + WR_(75) + WR_(89) + WR_(97) + 
WR_(99) + WR_(118) + WR_(140) = 1
slot_11: WR_(10) + WR_(44) + WR_(53) + WR_(75) + WR_(87) + WR_(96) + WR_(118) + 
WR_(139) = 1
slot_10: WR_(9) + WR_(52) + WR_(95) + WR_(138) = 1
slot_9: WR_(8) + WR_(44) + WR_(51) + WR_(53) + WR_(75) + WR_(87) + WR_(94) + 
WR_(96) + WR_(118) + WR_(137) = 1
slot_8: WR_(7) + WR_(50) + WR_(63) + WR_(93) + WR_(106) + WR_(136) = 1
slot_7: WR_(6) + WR_(49) + WR_(92) + WR_(135) = 1
slot_6: WR_(5) + WR_(48) + WR_(91) + WR_(134) = 1
slot_5: WR_(4) + WR_(47) + WR_(90) + WR_(133) = 1
slot_4: WR_(3) + WR_(44) + WR_(46) + WR_(51) + WR_(53) + WR_(54) + WR_(56) + 
WR_(75) + WR_(87) + WR_(89) + WR_(94) + WR_(96) + WR_(97) + WR_(99) + WR_(118) + 
WR_(132) = 1
slot_3: WR_(2) + WR_(43) + WR_(45) + WR_(86) + WR_(88) + WR_(131) = 1
slot_2: WR_(1) + WR_(44) + WR_(51) + WR_(53) + WR_(75) + WR_(87) + WR_(94) + 
WR_(96) + WR_(130) = 1
slot_1: WR_(0) + WR_(43) + WR_(45) + WR_(86) + WR_(88) + WR_(129) = 1
slot: = 0

Bounds

Binaries
WR_(0) WR_(1) WR_(2) WR_(3) WR_(4) WR_(5) WR_(6) WR_(7) WR_(8) WR_(9) WR_(10) 
WR_(11) WR_(12) WR_(13) WR_(14) WR_(15) WR_(16) WR_(17) WR_(18) WR_(19) WR_(20) 
WR_(21) WR_(22) WR_(23) WR_(24) WR_(25) WR_(26) WR_(27) WR_(28) WR_(29) WR_(30) 
WR_(31) WR_(32) WR_(33) WR_(34) WR_(35) WR_(36) WR_(37) WR_(38) WR_(39) WR_(40) 
WR_(41) WR_(42) WR_(43) WR_(44) WR_(45) WR_(46) WR_(47) WR_(48) WR_(49) WR_(50) 
WR_(51) WR_(52) WR_(53) WR_(54) WR_(55) WR_(56) WR_(57) WR_(58) WR_(59) WR_(60) 
WR_(61) WR_(62) WR_(63) WR_(64) WR_(65) WR_(66) WR_(67) WR_(68) WR_(69) WR_(70) 
WR_(71) WR_(72) WR_(73) WR_(74) WR_(75) WR_(76) WR_(77) WR_(78) WR_(79) WR_(80) 
WR_(81) WR_(82) WR_(83) WR_(84) WR_(85) WR_(86) WR_(87) WR_(88) WR_(89) WR_(90) 
WR_(91) WR_(92) WR_(93) WR_(94) WR_(95) WR_(96) WR_(97) WR_(98) WR_(99) WR_(100) 
WR_(101) WR_(102) WR_(103) WR_(104) WR_(105) WR_(106) WR_(107) WR_(108) WR_(109) 
WR_(110) WR_(111) WR_(112) WR_(113) WR_(114) WR_(115) WR_(116) WR_(117) WR_(118) 
WR_(119) WR_(120) WR_(121) WR_(122) WR_(123) WR_(124) WR_(125) WR_(126) WR_(127) 
WR_(128) WR_(129) WR_(130) WR_(131) WR_(132) WR_(133) WR_(134) WR_(135) WR_(136) 
WR_(137) WR_(138) WR_(139) WR_(140) WR_(141) WR_(142) WR_(143) WR_(144) WR_(145) 
WR_(146) WR_(147) WR_(148) WR_(149) WR_(150) WR_(151) WR_(152) WR_(153) WR_(154) 
WR_(155) WR_(156) WR_(157) WR_(158) WR_(159) WR_(160) WR_(161) WR_(162) WR_(163) 
WR_(164) WR_(165) WR_(166) WR_(167) WR_(168) WR_(169) WR_(170) WR_(171) 

End
